120
150
53
57
50
52
52
54
40
55
44
55
40
56
48
45
49
56
43
51
50
58
56
47
57
49
47
54
42
44
45
51
58
49
57
47
43
54
49
51
56
47
57
52
46
53
55
50
49
51
49
55
49
60
58
48
52
43
44
55
58
52
41
48
49
40
53
55
54
48
43
55
58
46
52
47
51
40
51
41
55
52
49
48
48
41
59
53
43
47
52
56
42
45
60
60
46
42
51
49
50
52
55
54
43
49
57
58
51
44
58
47
47
57
41
44
58
58
58
45
46
60
